Optimal - objective value 1419.00000000
      1 x_1                    1                       0
      5 x_5                    1         -15.2335329341317
     11 x_11                   1         25.2634730538922
     17 x_17                   1                       0
     18 x_18                   1         21.437125748503
     26 x_26                   1         -9.75449101796407
     30 x_30                   1                      28
     31 x_31                   1                       0
     38 x_38                   1                      12
     44 x_44                   1                       0
     45 x_45                   1                       0
     51 x_51                   1                       0
     55 x_55                   1                       0
     64 x_64                   1                       0
     69 x_69                   1         27.8862275449102
     72 x_72                   1                       0
     75 x_75                   1         -24.9880239520958
     81 x_81                   1                       0
     88 x_88                   1         -0.988023952095805
     93 x_93                   1                       0
     94 x_94                   1                      16
    100 x_100                  1                       0
    102 x_102                  1                       0
    109 x_109                  1                       0
    112 x_112                  1                       0
    116 x_116                  1                       0
    121 x_121                  1                       0
    124 x_124                  1                       0
    126 x_126                  1                       0
    131 x_131                  1         41.4850299401198
    137 x_137                  1                       0
    140 x_140                  1                       0
    143 x_143                  1                      22
    147 x_147                  1                     -13
    155 x_155                  1         4.2934131736527
    157 x_157                  1                       1
    162 x_162                  1                       0
    171 x_171                  1                       0
    172 x_172                  1                      -8
    179 x_179                  1         35.5508982035928
    184 x_184                  1         -15.4491017964072
    188 x_188                  1                       0
    194 x_194                  1                       0
    198 x_198                  1                       0
    199 x_199                  1                       0
    202 x_202                  1                       0
    210 x_210                  1         -1.21556886227545
    214 x_214                  1                       0
    216 x_216                  1                       0
    218 x_218                  1         6.56287425149701
    224 x_224                  1                       0
    227 x_227                  1         28.0359281437126
    232 x_232                  1         -7.31736526946107
    234 x_234                  1                       0
    241 x_241                  1                       0
    243 x_243                  1                       0
    246 x_246                  1                       0
    250 x_250                  1         -1.44910179640719
    256 x_256                  1         -35.1377245508982
    260 x_260                  1                      -3
    264 x_264                  1         -3.72455089820359
    267 x_267                  1                      14
    272 x_272                  1         -0.988023952095809
    279 x_279                  1                       0
    280 x_280                  1                       0
    284 x_284                  1                      15
    286 x_286                  1         -10.1137724550898
    291 x_291                  1         -32.3652694610779
    295 x_295                  1         21.7844311377246
    300 x_300                  1                       0
    307 x_307                  1         -5.32335329341317
    311 x_311                  1         -19.4311377245509
    313 x_313                  1         -3.61676646706587
    322 x_322                  1                       0
    326 x_326                  1                       0
    333 x_333                  1         -3.50299401197604
    335 x_335                  1                       0
    339 x_339                  1         6.9880239520958
    344 x_344                  1                      -2
    351 x_351                  1         -13.9161676646707
Optimal - objective value 1419.00000000
      1 x_1                    1                       0
      5 x_5                    1         -15.2335329341317
     11 x_11                   1         25.2634730538922
     17 x_17                   1                       0
     18 x_18                   1         21.437125748503
     26 x_26                   1         -9.75449101796407
     30 x_30                   1                      28
     31 x_31                   1                       0
     38 x_38                   1                      12
     44 x_44                   1                       0
     45 x_45                   1                       0
     51 x_51                   1                       0
     55 x_55                   1                       0
     64 x_64                   1                       0
     69 x_69                   1         27.8862275449102
     72 x_72                   1                       0
     75 x_75                   1         -24.9880239520958
     81 x_81                   1                       0
     88 x_88                   1         -0.988023952095805
     93 x_93                   1                       0
     94 x_94                   1                      16
    100 x_100                  1                       0
    102 x_102                  1                       0
    109 x_109                  1                       0
    112 x_112                  1                       0
    116 x_116                  1                       0
    121 x_121                  1                       0
    124 x_124                  1                       0
    126 x_126                  1                       0
    131 x_131                  1         41.4850299401198
    137 x_137                  1                       0
    140 x_140                  1                       0
    143 x_143                  1                      22
    147 x_147                  1                     -13
    155 x_155                  1         4.2934131736527
    157 x_157                  1                       1
    162 x_162                  1                       0
    171 x_171                  1                       0
    172 x_172                  1                      -8
    179 x_179                  1         35.5508982035928
    184 x_184                  1         -15.4491017964072
    188 x_188                  1                       0
    194 x_194                  1                       0
    198 x_198                  1                       0
    199 x_199                  1                       0
    202 x_202                  1                       0
    210 x_210                  1         -1.21556886227545
    214 x_214                  1                       0
    216 x_216                  1                       0
    218 x_218                  1         6.56287425149701
    224 x_224                  1                       0
    227 x_227                  1         28.0359281437126
    232 x_232                  1         -7.31736526946107
    234 x_234                  1                       0
    241 x_241                  1                       0
    243 x_243                  1                       0
    246 x_246                  1                       0
    250 x_250                  1         -1.44910179640719
    256 x_256                  1         -35.1377245508982
    260 x_260                  1                      -3
    264 x_264                  1         -3.72455089820359
    267 x_267                  1                      14
    272 x_272                  1         -0.988023952095809
    279 x_279                  1                       0
    280 x_280                  1                       0
    284 x_284                  1                      15
    286 x_286                  1         -10.1137724550898
    291 x_291                  1         -32.3652694610779
    295 x_295                  1         21.7844311377246
    300 x_300                  1                       0
    307 x_307                  1         -5.32335329341317
    311 x_311                  1         -19.4311377245509
    313 x_313                  1         -3.61676646706587
    322 x_322                  1                       0
    326 x_326                  1                       0
    333 x_333                  1         -3.50299401197604
    335 x_335                  1                       0
    339 x_339                  1         6.9880239520958
    344 x_344                  1                      -2
    351 x_351                  1         -13.9161676646707
